n = 30
Q1 = [0 46 8 8 42 43 20 19 49 7 36 13 48 0 0 0 47 32 0 14 25 0 0 29 42 46 5 0 0 0; 0 0 0 49 0 0 14 0 42 44 28 0 8 26 50 0 34 19 25 0 0 21 40 0 14 0 0 25 47 32; 0 0 0 21 49 9 12 31 42 0 37 0 47 0 11 24 6 36 21 15 29 0 18 8 14 0 14 27 0 0; 0 0 0 0 49 0 46 0 27 0 48 0 0 0 25 32 5 0 45 19 17 45 32 0 48 6 50 5 18 0; 0 0 0 0 0 0 7 42 0 6 0 10 33 29 12 14 17 0 0 20 45 16 0 0 14 29 0 0 0 35; 0 0 0 0 0 0 0 22 20 0 20 5 33 21 23 0 23 49 10 50 45 49 50 0 13 13 0 0 42 45; 0 0 0 0 0 0 0 28 45 0 21 9 27 19 9 25 19 48 0 5 0 0 33 20 0 15 35 23 23 18; 0 0 0 0 0 0 0 0 0 43 0 23 11 23 42 27 30 18 0 46 35 11 40 0 20 45 0 46 47 23; 0 0 0 0 0 0 0 0 0 0 7 25 14 18 35 28 35 26 0 26 22 49 40 38 29 0 35 0 0 0; 0 0 0 0 0 0 0 0 0 0 42 28 35 0 27 0 31 43 13 8 0 0 0 32 36 22 21 15 40 45; 0 0 0 0 0 0 0 0 0 0 0 0 0 0 0 50 32 0 7 36 15 31 33 41 0 6 0 0 23 0; 0 0 0 0 0 0 0 0 0 0 0 0 34 0 41 0 26 0 21 12 12 0 9 16 27 0 14 35 0 35; 0 0 0 0 0 0 0 0 0 0 0 0 0 13 17 40 38 48 0 0 20 49 19 0 39 0 22 0 35 42; 0 0 0 0 0 0 0 0 0 0 0 0 0 0 32 12 27 24 37 0 28 0 0 22 0 0 38 48 34 19; 0 0 0 0 0 0 0 0 0 0 0 0 0 0 0 38 16 23 0 22 0 0 18 11 12 7 42 44 38 23; 0 0 0 0 0 0 0 0 0 0 0 0 0 0 0 0 19 6 0 9 0 44 31 21 0 0 23 35 5 29; 0 0 0 0 0 0 0 0 0 0 0 0 0 0 0 0 0 28 19 0 10 34 43 17 36 44 49 18 26 0; 0 0 0 0 0 0 0 0 0 0 0 0 0 0 0 0 0 0 38 7 26 0 33 13 26 49 28 41 49 34; 0 0 0 0 0 0 0 0 0 0 0 0 0 0 0 0 0 0 0 14 33 0 0 31 0 0 25 25 0 0; 0 0 0 0 0 0 0 0 0 0 0 0 0 0 0 0 0 0 0 0 0 32 40 30 34 20 47 19 28 49; 0 0 0 0 0 0 0 0 0 0 0 0 0 0 0 0 0 0 0 0 0 40 13 28 31 0 0 27 0 20; 0 0 0 0 0 0 0 0 0 0 0 0 0 0 0 0 0 0 0 0 0 0 0 0 0 39 0 9 17 0; 0 0 0 0 0 0 0 0 0 0 0 0 0 0 0 0 0 0 0 0 0 0 0 19 29 0 15 32 0 37; 0 0 0 0 0 0 0 0 0 0 0 0 0 0 0 0 0 0 0 0 0 0 0 0 28 45 43 12 37 19; 0 0 0 0 0 0 0 0 0 0 0 0 0 0 0 0 0 0 0 0 0 0 0 0 0 0 0 49 13 25; 0 0 0 0 0 0 0 0 0 0 0 0 0 0 0 0 0 0 0 0 0 0 0 0 0 0 32 10 0 18; 0 0 0 0 0 0 0 0 0 0 0 0 0 0 0 0 0 0 0 0 0 0 0 0 0 0 0 25 40 35; 0 0 0 0 0 0 0 0 0 0 0 0 0 0 0 0 0 0 0 0 0 0 0 0 0 0 0 0 43 17; 0 0 0 0 0 0 0 0 0 0 0 0 0 0 0 0 0 0 0 0 0 0 0 0 0 0 0 0 0 12; 0 0 0 0 0 0 0 0 0 0 0 0 0 0 0 0 0 0 0 0 0 0 0 0 0 0 0 0 0 0]
Q2 = [0.0 0.0 44.0 50.0 0.0 3.0 50.0 32.0 0.0 43.0 12.0 44.0 2.0 0.0 0.0 0.0 2.0 11.0 0.0 40.0 24.0 0.0 0.0 17.0 7.0 2.0 49.0 0.0 0.0 0.0; 0.0 0.0 0.0 1.0 0.0 0.0 40.0 0.0 1.0 5.0 10.0 0.0 48.0 17.0 0.0 0.0 13.0 48.0 5.0 0.0 0.0 38.0 3.0 0.0 50.0 0.0 0.0 9.0 1.0 17.0; 0.0 0.0 0.0 42.0 0.0 48.0 48.0 14.0 4.0 0.0 4.0 0.0 1.0 0.0 50.0 33.0 50.0 14.0 33.0 40.0 0.0 0.0 38.0 43.0 36.0 0.0 43.0 16.0 0.0 0.0; 0.0 0.0 0.0 0.0 1.0 0.0 4.0 0.0 3.0 0.0 2.0 0.0 0.0 0.0 15.0 16.0 48.0 0.0 1.0 41.0 41.0 2.0 12.0 0.0 2.0 48.0 0.0 46.0 47.0 0.0; 0.0 0.0 0.0 0.0 0.0 0.0 44.0 3.0 0.0 48.0 0.0 43.0 8.0 0.0 44.0 36.0 42.0 0.0 0.0 45.0 3.0 44.0 0.0 0.0 44.0 21.0 0.0 0.0 0.0 14.0; 0.0 0.0 0.0 0.0 0.0 0.0 0.0 40.0 40.0 0.0 35.0 48.0 17.0 33.0 37.0 0.0 46.0 1.0 41.0 0.0 3.0 0.0 0.0 0.0 49.0 42.0 0.0 0.0 4.0 2.0; 0.0 0.0 0.0 0.0 0.0 0.0 0.0 0.0 5.0 0.0 44.0 46.0 7.0 32.0 45.0 6.0 32.0 1.0 0.0 47.0 0.0 0.0 15.0 38.0 0.0 49.0 5.0 31.0 36.0 39.0; 0.0 0.0 0.0 0.0 0.0 0.0 0.0 0.0 0.0 7.0 0.0 46.0 46.0 30.0 1.0 16.0 17.0 45.0 0.0 1.0 6.0 50.0 6.0 0.0 42.0 0.0 0.0 2.0 1.0 29.0; 0.0 0.0 0.0 0.0 0.0 0.0 0.0 0.0 0.0 0.0 48.0 5.0 38.0 35.0 0.0 5.0 5.0 22.0 0.0 18.0 38.0 1.0 6.0 5.0 3.0 0.0 7.0 0.0 0.0 0.0; 0.0 0.0 0.0 0.0 0.0 0.0 0.0 0.0 0.0 0.0 8.0 5.0 1.0 0.0 19.0 0.0 9.0 6.0 49.0 44.0 0.0 0.0 0.0 14.0 4.0 36.0 38.0 49.0 5.0 4.0; 0.0 0.0 0.0 0.0 0.0 0.0 0.0 0.0 0.0 0.0 0.0 0.0 0.0 0.0 0.0 0.0 15.0 0.0 49.0 10.0 42.0 14.0 4.0 5.0 0.0 44.0 0.0 0.0 29.0 0.0; 0.0 0.0 0.0 0.0 0.0 0.0 0.0 0.0 0.0 0.0 0.0 0.0 2.0 0.0 9.0 0.0 14.0 0.0 35.0 50.0 39.0 0.0 42.0 49.0 3.0 0.0 39.0 12.0 0.0 10.0; 0.0 0.0 0.0 0.0 0.0 0.0 0.0 0.0 0.0 0.0 0.0 0.0 0.0 50.0 36.0 0.0 8.0 0.0 0.0 0.0 42.0 0.0 42.0 0.0 2.0 0.0 38.0 0.0 2.0 6.0; 0.0 0.0 0.0 0.0 0.0 0.0 0.0 0.0 0.0 0.0 0.0 0.0 0.0 0.0 14.0 45.0 11.0 41.0 3.0 0.0 4.0 0.0 0.0 30.0 0.0 0.0 4.0 0.0 10.0 34.0; 0.0 0.0 0.0 0.0 0.0 0.0 0.0 0.0 0.0 0.0 0.0 0.0 0.0 0.0 0.0 5.0 41.0 48.0 0.0 35.0 0.0 0.0 40.0 47.0 44.0 46.0 0.0 0.0 9.0 28.0; 0.0 0.0 0.0 0.0 0.0 0.0 0.0 0.0 0.0 0.0 0.0 0.0 0.0 0.0 0.0 0.0 39.0 44.0 0.0 48.0 0.0 5.0 7.0 46.0 0.0 0.0 34.0 14.0 48.0 1.0; 0.0 0.0 0.0 0.0 0.0 0.0 0.0 0.0 0.0 0.0 0.0 0.0 0.0 0.0 0.0 0.0 0.0 21.0 49.0 0.0 41.0 2.0 4.0 48.0 0.0 1.0 1.0 36.0 9.0 0.0; 0.0 0.0 0.0 0.0 0.0 0.0 0.0 0.0 0.0 0.0 0.0 0.0 0.0 0.0 0.0 0.0 0.0 0.0 3.0 47.0 17.0 0.0 2.0 44.0 6.0 0.0 14.0 0.0 0.0 13.0; 0.0 0.0 0.0 0.0 0.0 0.0 0.0 0.0 0.0 0.0 0.0 0.0 0.0 0.0 0.0 0.0 0.0 0.0 0.0 37.0 17.0 0.0 0.0 5.0 0.0 0.0 15.0 19.0 0.0 0.0; 0.0 0.0 0.0 0.0 0.0 0.0 0.0 0.0 0.0 0.0 0.0 0.0 0.0 0.0 0.0 0.0 0.0 0.0 0.0 0.0 0.0 3.0 3.0 19.0 9.0 50.0 0.0 48.0 2.0 0.0; 0.0 0.0 0.0 0.0 0.0 0.0 0.0 0.0 0.0 0.0 0.0 0.0 0.0 0.0 0.0 0.0 0.0 0.0 0.0 0.0 0.0 7.0 48.0 3.0 16.0 0.0 0.0 3.0 0.0 30.0; 0.0 0.0 0.0 0.0 0.0 0.0 0.0 0.0 0.0 0.0 0.0 0.0 0.0 0.0 0.0 0.0 0.0 0.0 0.0 0.0 0.0 0.0 0.0 0.0 0.0 5.0 0.0 47.0 44.0 0.0; 0.0 0.0 0.0 0.0 0.0 0.0 0.0 0.0 0.0 0.0 0.0 0.0 0.0 0.0 0.0 0.0 0.0 0.0 0.0 0.0 0.0 0.0 0.0 36.0 14.0 0.0 35.0 5.0 0.0 6.0; 0.0 0.0 0.0 0.0 0.0 0.0 0.0 0.0 0.0 0.0 0.0 0.0 0.0 0.0 0.0 0.0 0.0 0.0 0.0 0.0 0.0 0.0 0.0 0.0 22.0 2.0 3.0 42.0 5.0 42.0; 0.0 0.0 0.0 0.0 0.0 0.0 0.0 0.0 0.0 0.0 0.0 0.0 0.0 0.0 0.0 0.0 0.0 0.0 0.0 0.0 0.0 0.0 0.0 0.0 0.0 0.0 0.0 1.0 48.0 25.0; 0.0 0.0 0.0 0.0 0.0 0.0 0.0 0.0 0.0 0.0 0.0 0.0 0.0 0.0 0.0 0.0 0.0 0.0 0.0 0.0 0.0 0.0 0.0 0.0 0.0 0.0 1.0 41.0 0.0 41.0; 0.0 0.0 0.0 0.0 0.0 0.0 0.0 0.0 0.0 0.0 0.0 0.0 0.0 0.0 0.0 0.0 0.0 0.0 0.0 0.0 0.0 0.0 0.0 0.0 0.0 0.0 0.0 20.0 0.0 5.0; 0.0 0.0 0.0 0.0 0.0 0.0 0.0 0.0 0.0 0.0 0.0 0.0 0.0 0.0 0.0 0.0 0.0 0.0 0.0 0.0 0.0 0.0 0.0 0.0 0.0 0.0 0.0 0.0 3.0 46.0; 0.0 0.0 0.0 0.0 0.0 0.0 0.0 0.0 0.0 0.0 0.0 0.0 0.0 0.0 0.0 0.0 0.0 0.0 0.0 0.0 0.0 0.0 0.0 0.0 0.0 0.0 0.0 0.0 0.0 43.0; 0.0 0.0 0.0 0.0 0.0 0.0 0.0 0.0 0.0 0.0 0.0 0.0 0.0 0.0 0.0 0.0 0.0 0.0 0.0 0.0 0.0 0.0 0.0 0.0 0.0 0.0 0.0 0.0 0.0 0.0]
Q3 = [0 11 9 11 16 8 0 11 16 15 7 6 16 71 71 71 9 2 71 15 8 71 71 7 21 14 15 71 71 71; 0 0 71 3 71 71 16 71 20 8 11 71 10 25 10 71 6 4 65 71 71 10 24 71 7 71 71 62 21 21; 0 0 0 4 4 14 6 11 10 71 5 71 11 71 6 6 10 10 7 10 71 71 9 15 14 71 1 27 71 71; 0 0 0 0 20 71 15 71 69 71 2 71 71 71 0 21 15 71 25 5 13 19 25 71 17 10 1 0 3 71; 0 0 0 0 0 71 3 11 71 7 71 1 8 43 8 14 0 71 71 0 7 9 71 71 11 16 71 71 71 5; 0 0 0 0 0 0 71 4 7 71 14 2 7 14 0 71 2 3 15 1 21 12 13 71 1 13 71 71 15 12; 0 0 0 0 0 0 0 48 20 71 3 14 37 16 17 54 12 8 71 7 71 71 21 12 71 2 6 8 7 14; 0 0 0 0 0 0 0 0 71 5 71 1 12 14 18 25 2 0 71 24 23 4 16 71 7 25 71 19 4 10; 0 0 0 0 0 0 0 0 0 71 0 56 11 8 58 71 13 19 71 20 2 2 21 26 64 71 9 71 71 71; 0 0 0 0 0 0 0 0 0 0 1 56 4 71 15 71 2 22 0 19 71 71 71 19 19 7 11 6 23 4; 0 0 0 0 0 0 0 0 0 0 0 71 71 71 71 17 5 71 2 15 7 19 33 21 71 14 71 71 3 71; 0 0 0 0 0 0 0 0 0 0 0 0 26 71 13 71 3 71 1 9 15 71 12 4 44 71 3 24 71 3; 0 0 0 0 0 0 0 0 0 0 0 0 0 5 12 10 6 13 71 71 1 7 1 71 5 71 7 71 1 15; 0 0 0 0 0 0 0 0 0 0 0 0 0 0 21 10 5 4 8 71 65 71 71 12 71 71 3 7 16 0; 0 0 0 0 0 0 0 0 0 0 0 0 0 0 0 9 1 0 71 7 71 71 1 4 11 0 26 26 19 11; 0 0 0 0 0 0 0 0 0 0 0 0 0 0 0 0 5 19 71 6 71 19 0 0 71 71 12 14 16 58; 0 0 0 0 0 0 0 0 0 0 0 0 0 0 0 0 0 8 2 71 14 30 2 6 31 11 5 17 37 71; 0 0 0 0 0 0 0 0 0 0 0 0 0 0 0 0 0 0 14 7 22 71 36 4 42 0 14 1 12 20; 0 0 0 0 0 0 0 0 0 0 0 0 0 0 0 0 0 0 0 16 9 71 71 20 71 71 12 16 71 71; 0 0 0 0 0 0 0 0 0 0 0 0 0 0 0 0 0 0 0 0 71 57 3 0 3 1 15 4 60 12; 0 0 0 0 0 0 0 0 0 0 0 0 0 0 0 0 0 0 0 0 0 24 0 44 3 71 71 59 71 13; 0 0 0 0 0 0 0 0 0 0 0 0 0 0 0 0 0 0 0 0 0 0 71 71 71 17 71 11 4 71; 0 0 0 0 0 0 0 0 0 0 0 0 0 0 0 0 0 0 0 0 0 0 0 14 6 71 18 13 71 19; 0 0 0 0 0 0 0 0 0 0 0 0 0 0 0 0 0 0 0 0 0 0 0 0 17 23 6 3 7 5; 0 0 0 0 0 0 0 0 0 0 0 0 0 0 0 0 0 0 0 0 0 0 0 0 0 71 71 18 10 2; 0 0 0 0 0 0 0 0 0 0 0 0 0 0 0 0 0 0 0 0 0 0 0 0 0 0 61 19 71 0; 0 0 0 0 0 0 0 0 0 0 0 0 0 0 0 0 0 0 0 0 0 0 0 0 0 0 0 21 5 21; 0 0 0 0 0 0 0 0 0 0 0 0 0 0 0 0 0 0 0 0 0 0 0 0 0 0 0 0 12 3; 0 0 0 0 0 0 0 0 0 0 0 0 0 0 0 0 0 0 0 0 0 0 0 0 0 0 0 0 0 14; 0 0 0 0 0 0 0 0 0 0 0 0 0 0 0 0 0 0 0 0 0 0 0 0 0 0 0 0 0 0]
